
Gurobi 10.0.1 (linux64) logging started Sun Nov 26 16:04:08 2023

Set parameter LogFile to value "ArtificialInstance/ExperimentV2/S3T3K3/AdSp/gurobiDoSp61.txt"
Gurobi Optimizer version 10.0.1 build v10.0.1rc0 (linux64)

CPU model: AMD EPYC 7H12 64-Core Processor, instruction set [SSE2|AVX|AVX2]
Thread count: 128 physical cores, 128 logical processors, using up to 32 threads

Academic license 656792 - for non-commercial use only - registered to b.___@student.vu.nl
Optimize a model with 12920 rows, 12504 columns and 47866 nonzeros
Model fingerprint: 0xf9b7fee3
Variable types: 0 continuous, 12504 integer (12504 binary)
Coefficient statistics:
  Matrix range     [1e+00, 1e+00]
  Objective range  [1e+00, 2e+01]
  Bounds range     [1e+00, 1e+00]
  RHS range        [1e+00, 1e+00]
Presolve removed 10405 rows and 10112 columns
Presolve time: 0.19s
Presolved: 2515 rows, 2392 columns, 9325 nonzeros
Variable types: 0 continuous, 2392 integer (2392 binary)

Root relaxation: objective 7.088040e+01, 479 iterations, 0.01 seconds (0.01 work units)

    Nodes    |    Current Node    |     Objective Bounds      |     Work
 Expl Unexpl |  Obj  Depth IntInf | Incumbent    BestBd   Gap | It/Node Time

*    0     0               0      70.8804048   70.88040  0.00%     -    0s

Explored 1 nodes (479 simplex iterations) in 0.22 seconds (0.15 work units)
Thread count was 32 (of 128 available processors)

Solution count 1: 70.8804 

Optimal solution found (tolerance 1.00e-04)
Best objective 7.088040483501e+01, best bound 7.088040483501e+01, gap 0.0000%
